NAME : set1.847433.tour
COMMENT : Length = 847433
TYPE : TOUR
DIMENSION : 85
TOUR_SECTION
1
5
26
14
67
2
22
84
11
75
7
41
28
73
44
82
15
37
63
76
21
48
85
32
20
43
74
8
17
45
47
4
31
25
13
66
65
46
42
79
77
59
68
12
3
23
30
33
50
18
24
58
49
78
61
81
69
83
70
62
9
72
60
53
51
27
19
34
71
6
57
10
35
64
56
54
40
55
16
29
52
36
80
39
38
-1
EOF
